p wcnf 151 179 180 
1 -116 -38 0 
1 8 142 0 
1 83 140 0 
1 139 -6 0 
1 -85 -64 0 
1 -63 -48 0 
1 129 -98 0 
1 -40 66 0 
1 32 -37 0 
1 5 37 0 
1 -27 -121 0 
1 -138 -34 0 
1 47 32 0 
1 -89 -37 0 
1 98 -88 0 
1 -11 51 0 
1 -139 101 0 
1 -39 83 0 
1 135 147 0 
1 56 -44 0 
1 6 -130 0 
1 -131 -57 0 
1 -68 -29 0 
1 -131 -61 0 
1 -109 115 0 
1 148 48 0 
1 123 30 0 
1 134 118 0 
1 -13 -68 0 
1 127 -16 0 
1 88 -139 0 
1 -140 61 0 
1 74 -51 0 
1 132 122 0 
1 -130 -82 0 
1 -44 144 0 
1 -12 25 0 
1 -62 63 0 
1 90 -103 0 
1 123 -38 0 
1 -111 -25 0 
1 -27 -121 0 
1 -15 62 0 
1 72 76 0 
1 -10 43 0 
1 136 83 0 
1 44 24 0 
1 22 -24 0 
1 -2 72 0 
1 -23 -57 0 
1 -5 -78 0 
1 86 17 0 
1 -36 -26 0 
1 89 -63 0 
1 -141 12 0 
1 -144 -51 0 
1 129 53 0 
1 -59 66 0 
1 -50 22 0 
1 142 77 0 
1 62 6 0 
1 78 105 0 
1 95 -6 0 
1 -80 -2 0 
1 -73 -29 0 
1 -27 -62 0 
1 -133 17 0 
1 41 -52 0 
1 61 -110 0 
1 -15 -131 0 
1 106 -101 0 
1 67 11 0 
1 28 70 0 
1 78 -4 0 
1 118 69 0 
1 7 123 0 
1 -80 20 0 
1 -62 -57 0 
1 -112 89 0 
1 66 -45 0 
1 -1 103 0 
1 -48 126 0 
1 20 123 0 
1 -87 59 0 
1 20 -144 0 
1 -66 -95 0 
1 122 98 0 
1 85 1 0 
1 -54 -147 0 
1 111 -113 0 
1 50 -27 0 
1 -138 -148 0 
1 116 91 0 
1 -113 -40 0 
1 126 -2 0 
1 52 29 0 
1 -9 12 0 
1 10 -148 0 
1 20 -84 0 
1 54 -119 0 
1 26 95 0 
1 81 -25 0 
1 -102 29 0 
1 120 149 0 
1 -126 -17 0 
1 2 128 0 
1 -25 57 0 
1 -107 75 0 
1 115 -71 0 
1 -133 118 0 
1 -87 135 0 
1 -89 70 0 
1 -13 -116 0 
1 -93 -87 0 
1 100 -95 0 
1 52 -146 0 
1 31 69 0 
1 -93 99 0 
1 148 -128 0 
1 -61 -104 0 
1 91 79 0 
1 -110 46 0 
1 92 57 0 
1 -107 -77 0 
1 3 -111 0 
1 133 145 0 
1 149 -48 0 
1 -105 -116 0 
1 -108 -23 0 
1 33 61 0 
1 7 81 0 
1 -54 64 0 
1 -56 39 0 
1 77 101 0 
1 104 -97 0 
1 -115 27 0 
1 -51 118 0 
1 -108 -11 0 
1 106 118 0 
1 92 -87 0 
1 83 -65 0 
1 131 -101 0 
1 -124 -10 0 
1 -95 -34 0 
1 -2 50 0 
1 -90 92 0 
1 5 127 0 
1 -129 121 0 
1 134 139 0 
1 -37 -114 0 
1 146 -136 0 
1 84 -39 0 
1 118 19 0 
1 98 147 0 
1 -138 -77 0 
1 71 -53 0 
1 36 -97 0 
1 -17 -91 0 
1 -10 -79 0 
1 23 -65 0 
1 38 97 0 
1 120 -148 0 
1 -116 -134 0 
1 31 -107 0 
1 -104 107 0 
1 128 -9 0 
1 138 90 0 
1 -6 -27 0 
1 -115 59 0 
1 81 -54 0 
1 108 46 0 
1 -125 -145 0 
1 -26 119 0 
1 112 73 0 
1 56 131 0 
1 15 150 0 
1 -77 -85 0 
1 92 16 0 
1 85 -101 0 
